p cnf 19 11
a 1 2 3 4 0
e 5 6 0
a 7 8 9 0
e 10 11 0
a 12 0
e 13 0
a 14 0
e 15 16 17 0
a 18 0
e 19 0
6 3 2 -7 -5 0
-4 1 -17 -5 0
-4 19 -11 16 9 0
-15 2 0
-1 -5 -7 -8 -17 0
16 -14 8 -19 18 0
-9 1 3 6 0
7 -6 9 3 0
11 6 13 8 0
-18 3 0
9 3 -18 -5 -7 0
